117 123 122 121 120 118 119 73 74 75 76 77 78 62 61 60 63 64 67 66 65 72 71 70 68 69 124 125 126 127 128 129 130 131 132 133 134 135 136 137 138 139 140 141 151 150 149 152 148 147 142 143 144 146 145 158 157 153 156 159 155 160 162 168 163 167 166 164 154 165 203 204 202 201 200 199 198 208 207 206 205 197 196 195 194 209 210 211 212 213 214 215 216 217 223 224 222 221 220 218 219 193 192 191 190 226 225 189 227 228 229 230 231 533 532 531 489 490 491 493 524 525 492 526 523 522 521 520 517 514 515 516 509 510 511 513 512 527 528 529 530 233 232 234 235 236 237 240 239 238 246 247 245 248 249 250 251 252 254 253 255 256 257 260 261 259 258 262 263 264 265 266 298 299 300 241 242 244 243 301 302 508 507 506 307 303 304 306 305 318 317 319 320 321 297 296 295 294 293 270 269 268 267 271 272 273 274 275 292 291 290 289 288 276 277 278 279 282 281 280 287 286 285 284 283 334 335 336 337 338 339 333 332 331 330 340 341 342 343 344 345 346 364 363 362 347 348 349 350 351 352 353 354 355 357 358 359 361 360 401 402 356 412 411 410 418 417 413 414 415 416 419 420 421 422 423 427 426 424 425 382 386 387 385 383 384 409 403 400 404 405 408 407 406 399 397 398 370 369 368 365 367 366 329 328 327 326 325 324 323 322 373 372 371 396 395 394 393 392 391 388 389 390 381 380 379 378 377 376 375 374 315 314 316 313 312 311 310 309 308 505 504 503 502 498 501 500 499 452 453 451 450 441 440 439 449 448 447 446 442 443 444 445 431 428 429 430 432 433 434 435 436 437 438 454 455 456 457 458 459 460 461 462 463 464 465 496 497 519 518 494 472 473 474 471 495 470 469 468 467 466 571 572 573 0 1 2 3 4 5 6 7 8 9 10 11 23 22 31 32 30 29 28 27 26 25 24 21 12 13 14 15 16 17 18 19 20 568 569 570 567 565 566 478 477 479 480 476 475 482 481 483 484 485 486 488 534 487 535 536 537 539 538 540 176 177 178 187 188 186 182 183 185 184 181 179 180 169 171 170 172 175 174 173 108 109 542 541 543 544 547 546 545 548 549 564 563 562 561 560 34 33 35 36 37 38 40 41 39 42 43 44 47 48 49 54 50 84 51 52 53 55 56 83 82 57 58 59 81 79 80 86 85 87 88 89 90 92 93 94 97 95 96 98 99 552 553 554 91 46 45 555 556 557 558 559 550 551 101 100 102 103 104 105 106 107 110 111 161 113 112 114 115 116